82
500
385	1
381	1
378	1
376	1
375	1
372	1
364	1
358	2
357	1
355	1
354	1
353	1
350	1
349	1
345	1
328	1
326	2
324	1
318	2
316	1
309	1
304	1
294	1
289	1
286	1
278	2
276	1
267	1
265	1
261	1
257	2
256	1
255	2
241	2
233	1
225	3
211	2
208	1
201	1
197	1
195	2
192	1
188	1
187	1
180	1
177	1
171	1
168	1
166	1
163	1
162	2
155	1
154	1
151	1
149	1
147	1
144	1
143	1
137	2
134	1
129	1
126	1
121	3
118	2
115	1
114	1
110	1
109	1
108	2
102	1
98	1
95	1
94	1
89	1
86	1
82	1
76	2
67	1
66	1
58	1
56	1
50	1
